n= 20; m= 6;

63	96	50	12	15	11	33	7	4	58	27	7	7	54	31	94	25	8	61	51
86	36	19	71	8	77	8	6	40	39	24	82	69	82	39	52	85	48	22	57
44	25	85	86	73	58	95	13	50	39	24	55	58	79	42	98	44	16	13	74
55	46	68	15	55	74	42	40	88	68	67	67	8	13	74	47	3	95	36	46
67	66	66	32	8	30	92	40	13	79	19	29	27	18	42	86	30	41	27	50
44	25	85	86	73	58	95	13	50	39	24	55	58	79	42	98	44	16	13	74


 

